
Log started (V11.0.0) Fri May 16 23:05:11 2008

Tried aggregator 1 time.
Reduced MIP has 510 rows, 5001 columns, and 10010 nonzeros.
Presolve time =    0.03 sec.
Clique table members: 500.
MIP emphasis: balance optimality and feasibility.
MIP search method: dynamic search.
Parallel mode: none, using 1 thread.
Root relaxation solution time =    0.14 sec.

        Nodes                                         Cuts/
   Node  Left     Objective  IInf  Best Integer     Best Node    ItCnt     Gap

*     0+    0                         9383.0000     1250.1293      549   86.68%
*     0+    0                         1290.0000     1250.1293      549    3.09%
      0     0     1251.0000    18     1290.0000      Fract: 9      568    3.02%
*     0+    0                         1285.0000     1251.0000      568    2.65%
      0     0     1251.0000    19     1285.0000     Covers: 1      575    2.65%
*     0+    0                         1277.0000     1251.0000      575    2.04%
      0     0     1251.0000    23     1277.0000     Covers: 1      579    2.04%
*     0+    0                         1275.0000     1251.0000      579    1.88%
*     0+    0                         1272.0000     1251.0000      579    1.65%
*     0+    0                         1270.0000     1251.0000      579    1.50%
*     0+    0                         1266.0000     1251.0000      579    1.18%
      0     2     1251.0000    23     1266.0000     1251.0000      579    1.18%
    100    91     1252.0000    15     1266.0000     1251.0000     2812    1.18%
*   200+  140                         1265.0000     1251.0000     7406    1.11%
    200   142     1252.0000    16     1265.0000     1251.0000     7406    1.11%
    300   198     1252.0000    22     1265.0000     1251.0000    11403    1.11%
    400   262     1253.0000    18     1265.0000     1251.0000    13813    1.11%
    500   323     1256.1708    15     1265.0000     1251.0000    16318    1.11%
*   533+  225                         1261.0000     1253.0000    20028    0.63%
*   533+  149                         1258.0000     1253.0000    20028    0.40%
    600   170     1257.0000    20     1258.0000     1253.0000    23202    0.40%
*   656+   87                         1257.0000     1253.0000    26061    0.32%
    700    99     1254.0000    20     1257.0000     1253.0000    26708    0.32%
*   733+  119                         1256.0000     1253.0000    29170    0.24%
    800   175     1254.0000    44     1256.0000     1253.0000    32376    0.24%
*   833+  142                         1255.0000     1253.0000    34400    0.16%
    900   199     1254.0000    26     1255.0000     1253.0000    43048    0.16%
   1000   290     1254.0000    29     1255.0000     1253.0000    53059    0.16%
Elapsed time =  33.22 sec. (tree size =  0.53 MB, solutions = 14)
   1100   373     1254.0000    28     1255.0000     1253.0000    61288    0.16%
   1200   455     1254.0000    78     1255.0000     1253.0000    70610    0.16%
   1300   548     1254.0000    30     1255.0000     1253.0000    75484    0.16%
   1400   637     1254.0000    28     1255.0000     1253.0000    82337    0.16%
   1500   721     1254.0000    50     1255.0000     1253.0000    92488    0.16%
   1600   808     1254.0000    35     1255.0000     1253.0763   102023    0.15%
   1700   874     1254.0000    30     1255.0000     1254.0000   111317    0.08%
   1800   965     1254.0000    33     1255.0000     1254.0000   119154    0.08%
   1900  1046     1254.0000    34     1255.0000     1254.0000   128509    0.08%
   2000  1132     1254.0000    49     1255.0000     1254.0000   140547    0.08%
Elapsed time =  62.44 sec. (tree size =  2.25 MB, solutions = 14)
   2100  1214     1254.0000    52     1255.0000     1254.0000   153879    0.08%
   2200  1300     1254.0000    50     1255.0000     1254.0000   169365    0.08%
   2300  1388     1254.0000    37     1255.0000     1254.0000   181132    0.08%
   2400  1472    infeasible           1255.0000     1254.0000   193484    0.08%
   2500  1532     1254.0000    43     1255.0000     1254.0000   208801    0.08%
   2600  1626     1254.0000    44     1255.0000     1254.0000   221333    0.08%
   2700  1704     1254.0000    73     1255.0000     1254.0000   243264    0.08%
   2800  1788     1254.0000    72     1255.0000     1254.0000   263203    0.08%
   2900  1874     1254.0000    38     1255.0000     1254.0000   281956    0.08%
   3000  1959     1254.0000    44     1255.0000     1254.0000   298713    0.08%
Elapsed time = 115.28 sec. (tree size =  3.92 MB, solutions = 14)
   3100  2040     1254.0000    44     1255.0000     1254.0000   321885    0.08%
   3200  2126     1254.0000    83     1255.0000     1254.0000   341627    0.08%
   3300  2210     1254.0000    22     1255.0000     1254.0000   360717    0.08%
   3400  2288     1254.0000    60     1255.0000     1254.0000   375856    0.08%
   3500  2370     1254.0000    65     1255.0000     1254.0000   399368    0.08%
   3600  2434    infeasible           1255.0000     1254.0000   426055    0.08%
   3700  2510     1254.0000    55     1255.0000     1254.0000   449676    0.08%
   3800  2587    infeasible           1255.0000     1254.0000   473131    0.08%
   3900  2671     1254.0000    55     1255.0000     1254.0000   500411    0.08%
   4000  2763     1254.0000    62     1255.0000     1254.0000   521880    0.08%
Elapsed time = 208.91 sec. (tree size =  5.59 MB, solutions = 14)
   4100  2803     1254.0000    79     1255.0000     1254.0000   553992    0.08%
   4200  2881     1254.0000    67     1255.0000     1254.0000   579317    0.08%
   4300  2968     1254.0000    39     1255.0000     1254.0000   601431    0.08%
   4400  3040     1254.0000    74     1255.0000     1254.0000   630653    0.08%
   4500  3124     1254.0000    49     1255.0000     1254.0000   657274    0.08%
   4600  3206     1254.0000    85     1255.0000     1254.0000   683824    0.08%
   4700  3300     1254.0000    53     1255.0000     1254.0000   699847    0.08%
   4800  3386     1254.0000    78     1255.0000     1254.0000   727719    0.08%
   4900  3468     1254.0000    82     1255.0000     1254.0000   754667    0.08%
   5000  3546     1254.0000   105     1255.0000     1254.0000   779931    0.08%
Elapsed time = 334.47 sec. (tree size =  7.19 MB, solutions = 14)
   5100  3636     1254.0000    48     1255.0000     1254.0000   804562    0.08%
   5200  3724     1254.0000   104     1255.0000     1254.0000   830579    0.08%
   5300  3798     1254.0000   130     1255.0000     1254.0000   860522    0.08%
   5400  3880     1254.0000    97     1255.0000     1254.0000   895168    0.08%
   5500  3964     1254.0000    67     1255.0000     1254.0000   925742    0.08%
   5600  4022     1254.0000    87     1255.0000     1254.0000   956623    0.08%
   5700  4104     1254.0000   100     1255.0000     1254.0000   979941    0.08%
   5800  4166     1254.0000    72     1255.0000     1254.0000  1024112    0.08%
   5900  4254     1254.0000   105     1255.0000     1254.0000  1055578    0.08%
   6000  4318     1254.0000    91     1255.0000     1254.0000  1094119    0.08%
Elapsed time = 509.16 sec. (tree size =  8.84 MB, solutions = 14)
   6100  4391     1254.0000    81     1255.0000     1254.0000  1123056    0.08%
   6200  4472     1254.0000    78     1255.0000     1254.0000  1154353    0.08%
   6300  4558     1254.0000   117     1255.0000     1254.0000  1186954    0.08%
   6400  4650     1254.0000   100     1255.0000     1254.0000  1219489    0.08%
   6500  4726     1254.0000   115     1255.0000     1254.0000  1259525    0.08%
   6600  4800     1254.0000   104     1255.0000     1254.0000  1297687    0.08%
   6700  4881     1254.0000    87     1255.0000     1254.0000  1334288    0.08%
   6800  4971     1254.0000   116     1255.0000     1254.0000  1367721    0.08%
   6900  5037     1254.0000   113     1255.0000     1254.0000  1405052    0.08%
   7000  5105     1254.0000   112     1255.0000     1254.0000  1451182    0.08%
Elapsed time = 751.97 sec. (tree size = 10.48 MB, solutions = 14)
   7100  5185     1254.0000   111     1255.0000     1254.0000  1496159    0.08%
   7200  5234     1254.0000    80     1255.0000     1254.0000  1547151    0.08%
   7300  5300     1254.0000   105     1255.0000     1254.0000  1593736    0.08%
   7400  5374     1254.0000    82     1255.0000     1254.0000  1636746    0.08%
   7500  5458     1254.0000   114     1255.0000     1254.0000  1670271    0.08%
   7600  5525     1254.0000    97     1255.0000     1254.0000  1715965    0.08%
   7700  5605     1254.0000   111     1255.0000     1254.0000  1754438    0.08%
   7800  5679     1254.0000   119     1255.0000     1254.0000  1799846    0.08%
   7900  5737     1254.0000    98     1255.0000     1254.0000  1844946    0.08%
   8000  5809     1254.0000   138     1255.0000     1254.0000  1886527    0.08%
Elapsed time = 1089.44 sec. (tree size = 11.96 MB, solutions = 14)
   8100  5877     1254.0000   114     1255.0000     1254.0000  1930626    0.08%
   8200  5945     1254.0000    97     1255.0000     1254.0000  1975623    0.08%
   8300  6021     1254.0000    91     1255.0000     1254.0000  2024648    0.08%
   8400  6060     1254.0000    98     1255.0000     1254.0000  2083744    0.08%
   8500  6123     1254.0000   125     1255.0000     1254.0000  2134692    0.08%
   8600  6169    infeasible           1255.0000     1254.0000  2196813    0.08%
   8700  6235     1254.0000    90     1255.0000     1254.0000  2250036    0.08%
   8800  6283     1254.0000    83     1255.0000     1254.0000  2303303    0.08%
   8900  6363     1254.0000    95     1255.0000     1254.0000  2341554    0.08%
   9000  6437     1254.0000   113     1255.0000     1254.0000  2381482    0.08%
Elapsed time = 1513.67 sec. (tree size = 13.30 MB, solutions = 14)
   9100  6508     1254.0000   113     1255.0000     1254.0000  2429436    0.08%
   9200  6584     1254.0000   112     1255.0000     1254.0000  2465503    0.08%
   9300  6656    infeasible           1255.0000     1254.0000  2512020    0.08%
   9400  6718     1254.0000   117     1255.0000     1254.0000  2568751    0.08%
   9500  6789     1254.0000   129     1255.0000     1254.0000  2613892    0.08%
   9600  6851     1254.0000   142     1255.0000     1254.0000  2670426    0.08%
   9700  6899     1254.0000   120     1255.0000     1254.0000  2729910    0.08%
   9800  6981     1254.0000   109     1255.0000     1254.0000  2774811    0.08%
   9900  7037     1254.0000   128     1255.0000     1254.0000  2830277    0.08%
  10000  7104     1254.0000   137     1255.0000     1254.0000  2877926    0.08%
Elapsed time = 1992.58 sec. (tree size = 14.73 MB, solutions = 14)
  10100  7157     1254.0000    98     1255.0000     1254.0000  2939612    0.08%
  10200  7217     1254.0000   118     1255.0000     1254.0000  2994334    0.08%
  10300  7277     1254.0000    99     1255.0000     1254.0000  3052475    0.08%
  10400  7355     1254.0000    85     1255.0000     1254.0000  3101511    0.08%
  10500  7443     1254.0000   128     1255.0000     1254.0000  3144637    0.08%
  10600  7526     1254.0000   108     1255.0000     1254.0000  3187354    0.08%
  10700  7602     1254.0000    51     1255.0000     1254.0000  3231112    0.08%
  10800  7680     1254.0000    87     1255.0000     1254.0000  3272739    0.08%
  10900  7736     1254.0000   109     1255.0000     1254.0000  3319071    0.08%
  11000  7814     1254.0000   125     1255.0000     1254.0000  3361362    0.08%
Elapsed time = 2493.38 sec. (tree size = 16.25 MB, solutions = 14)
  11100  7868     1254.0000   136     1255.0000     1254.0000  3421576    0.08%
  11200  7936     1254.0000   135     1255.0000     1254.0000  3466417    0.08%
  11300  8006    infeasible           1255.0000     1254.0000  3519900    0.08%
  11400  8078     1254.0000   144     1255.0000     1254.0000  3572980    0.08%
  11500  8104    infeasible           1255.0000     1254.0000  3638094    0.08%
  11600  8180     1254.0000   133     1255.0000     1254.0000  3694750    0.08%
  11700  8258     1254.0000   104     1255.0000     1254.0000  3741606    0.08%
  11800  8317     1254.0000    98     1255.0000     1254.0000  3798130    0.08%
  11900  8345     1254.0000   111     1255.0000     1254.0000  3875052    0.08%
  12000  8417     1254.0000   122     1255.0000     1254.0000  3926372    0.08%
Elapsed time = 3114.98 sec. (tree size = 17.70 MB, solutions = 14)
  12100  8491     1254.0000   104     1255.0000     1254.0000  3972448    0.08%
  12200  8559    infeasible           1255.0000     1254.0000  4023594    0.08%
  12300  8631     1254.0000   126     1255.0000     1254.0000  4072167    0.08%
  12400  8715     1254.0000   108     1255.0000     1254.0000  4117283    0.08%
  12500  8789     1254.0000   108     1255.0000     1254.0000  4166679    0.08%
  12600  8863     1254.0000   147     1255.0000     1254.0000  4217681    0.08%
  12700  8943    infeasible           1255.0000     1254.0000  4264281    0.08%
  12800  9017     1254.0000    83     1255.0000     1254.0000  4311396    0.08%
  12900  9099     1254.0000   168     1255.0000     1254.0000  4354882    0.08%
  13000  9159     1254.0000   141     1255.0000     1254.0000  4412887    0.08%
Elapsed time = 3702.51 sec. (tree size = 19.32 MB, solutions = 14)
  13100  9237     1254.0000   114     1255.0000     1254.0000  4457903    0.08%
  13200  9275     1254.0000   117     1255.0000     1254.0000  4529528    0.08%
  13300  9329     1254.0000   110     1255.0000     1254.0000  4595638    0.08%
  13400  9353    infeasible           1255.0000     1254.0000  4676936    0.08%
  13500  9427     1254.0000   122     1255.0000     1254.0000  4736449    0.08%
  13600  9473    infeasible           1255.0000     1254.0000  4804087    0.08%
  13700  9517    infeasible           1255.0000     1254.0000  4857580    0.08%
  13800  9579     1254.0000   101     1255.0000     1254.0000  4913249    0.08%
  13900  9633    infeasible           1255.0000     1254.0000  4967515    0.08%
  14000  9713    infeasible           1255.0000     1254.0000  5019756    0.08%
Elapsed time = 4456.73 sec. (tree size = 20.55 MB, solutions = 14)
  14100  9771     1254.0000    99     1255.0000     1254.0000  5084298    0.08%
  14200  9807     1254.0000    54     1255.0000     1254.0000  5162478    0.08%
  14300  9858     1254.0000    87     1255.0000     1254.0000  5237840    0.08%
  14400  9912     1254.0000   135     1255.0000     1254.0000  5303264    0.08%
  14500  9962     1254.0000   141     1255.0000     1254.0000  5370900    0.08%
  14600  9990    infeasible           1255.0000     1254.0000  5442854    0.08%
  14700 10041    infeasible           1255.0000     1254.0000  5501078    0.08%
  14800 10103     1254.0000    90     1255.0000     1254.0000  5558738    0.08%
  14900 10141     1254.0000    76     1255.0000     1254.0000  5631701    0.08%
  15000 10209     1254.0000   129     1255.0000     1254.0000  5697416    0.08%
Elapsed time = 5360.39 sec. (tree size = 21.67 MB, solutions = 14)
  15100 10273    infeasible           1255.0000     1254.0000  5763461    0.08%
  15200 10361     1254.0000   110     1255.0000     1254.0000  5808626    0.08%
  15300 10413     1254.0000    70     1255.0000     1254.0000  5881812    0.08%
  15400 10465    infeasible           1255.0000     1254.0000  5946125    0.08%
  15500 10523     1254.0000   138     1255.0000     1254.0000  6010756    0.08%
  15600 10563     1254.0000   114     1255.0000     1254.0000  6083267    0.08%
  15700 10633     1254.0000   136     1255.0000     1254.0000  6142078    0.08%
  15800 10703     1254.0000   112     1255.0000     1254.0000  6202495    0.08%
  15900 10727    infeasible           1255.0000     1254.0000  6278073    0.08%
  16000 10789    infeasible           1255.0000     1254.0000  6345729    0.08%
Elapsed time = 6267.25 sec. (tree size = 22.97 MB, solutions = 14)
  16100 10847    infeasible           1255.0000     1254.0000  6409985    0.08%
  16200 10885     1254.0000   140     1255.0000     1254.0000  6488446    0.08%
  16300 10937    infeasible           1255.0000     1254.0000  6561445    0.08%
  16400 11001     1254.0000    88     1255.0000     1254.0000  6627256    0.08%
  16500 11075    infeasible           1255.0000     1254.0000  6684667    0.08%
  16600 11127     1254.0000   107     1255.0000     1254.0000  6762272    0.08%
  16700 11173     1254.0000    53     1255.0000     1254.0000  6834245    0.08%
  16800 11215     1254.0000    92     1255.0000     1254.0000  6892313    0.08%
  16900 11257    infeasible           1255.0000     1254.0000  6959317    0.08%

Cover cuts applied:  1957
Mixed integer rounding cuts applied:  11
Gomory fractional cuts applied:  9

Solution pool: 14 solutions saved.

MIP - Time limit exceeded, integer feasible:  Objective = 1.2550000000e+003
Current MIP best bound = 1.2540000000e+003 (gap = 1, 0.08%)
Solution time = 7200.05 sec.  Iterations = 6996933  Nodes = 16964 (11296)


Incumbent solution
Variable Name           Solution Value
Cmax                       1255.000000
X_1_8                         1.000000
X_2_4                         1.000000
X_3_8                         1.000000
X_4_8                         1.000000
X_5_4                         1.000000
X_6_8                         1.000000
X_7_4                         1.000000
X_8_8                         1.000000
X_9_2                         1.000000
X_10_8                        1.000000
X_11_8                        1.000000
X_12_4                        1.000000
X_13_8                        1.000000
X_14_10                       1.000000
X_15_10                       1.000000
X_16_2                        1.000000
X_17_4                        1.000000
X_18_10                       1.000000
X_19_4                        1.000000
X_20_3                        1.000000
X_21_4                        1.000000
X_22_8                        1.000000
X_23_4                        1.000000
X_24_8                        1.000000
X_25_8                        1.000000
X_26_6                        1.000000
X_27_1                        1.000000
X_28_10                       1.000000
X_29_10                       1.000000
X_30_8                        1.000000
X_31_2                        1.000000
X_32_4                        1.000000
X_33_10                       1.000000
X_34_10                       1.000000
X_35_4                        1.000000
X_36_8                        1.000000
X_37_8                        1.000000
X_38_2                        1.000000
X_39_8                        1.000000
X_40_10                       1.000000
X_41_4                        1.000000
X_42_7                        1.000000
X_43_4                        1.000000
X_44_4                        1.000000
X_45_4                        1.000000
X_46_1                        1.000000
X_47_10                       1.000000
X_48_4                        1.000000
X_49_7                        1.000000
X_50_2                        1.000000
X_51_10                       1.000000
X_52_1                        1.000000
X_53_5                        1.000000
X_54_8                        1.000000
X_55_4                        1.000000
X_56_10                       1.000000
X_57_4                        1.000000
X_58_8                        1.000000
X_59_8                        1.000000
X_60_10                       1.000000
X_61_8                        1.000000
X_62_4                        1.000000
X_63_8                        1.000000
X_64_2                        1.000000
X_65_4                        1.000000
X_66_7                        1.000000
X_67_6                        1.000000
X_68_8                        1.000000
X_69_8                        1.000000
X_70_10                       1.000000
X_71_8                        1.000000
X_72_3                        1.000000
X_73_8                        1.000000
X_74_1                        1.000000
X_75_3                        1.000000
X_76_6                        1.000000
X_77_8                        1.000000
X_78_10                       1.000000
X_79_5                        1.000000
X_80_2                        1.000000
X_81_8                        1.000000
X_82_6                        1.000000
X_83_5                        1.000000
X_84_2                        1.000000
X_85_8                        1.000000
X_86_4                        1.000000
X_87_4                        1.000000
X_88_8                        1.000000
X_89_4                        1.000000
X_90_8                        1.000000
X_91_8                        1.000000
X_92_10                       1.000000
X_93_8                        1.000000
X_94_8                        1.000000
X_95_6                        1.000000
X_96_8                        1.000000
X_97_4                        1.000000
X_98_6                        1.000000
X_99_4                        1.000000
X_100_8                       1.000000
X_101_10                      1.000000
X_102_4                       1.000000
X_103_10                      1.000000
X_104_10                      1.000000
X_105_10                      1.000000
X_106_8                       1.000000
X_107_1                       1.000000
X_108_8                       1.000000
X_109_6                       1.000000
X_110_4                       1.000000
X_111_8                       1.000000
X_112_8                       1.000000
X_113_1                       1.000000
X_114_7                       1.000000
X_115_10                      1.000000
X_116_8                       1.000000
X_117_4                       1.000000
X_118_8                       1.000000
X_119_8                       1.000000
X_120_8                       1.000000
X_121_10                      1.000000
X_122_8                       1.000000
X_123_2                       1.000000
X_124_10                      1.000000
X_125_8                       1.000000
X_126_2                       1.000000
X_127_8                       1.000000
X_128_1                       1.000000
X_129_2                       1.000000
X_130_10                      1.000000
X_131_8                       1.000000
X_132_8                       1.000000
X_133_10                      1.000000
X_134_5                       1.000000
X_135_8                       1.000000
X_136_8                       1.000000
X_137_4                       1.000000
X_138_8                       1.000000
X_139_4                       1.000000
X_140_10                      1.000000
X_141_1                       1.000000
X_142_8                       1.000000
X_143_8                       1.000000
X_144_4                       1.000000
X_145_10                      1.000000
X_146_8                       1.000000
X_147_8                       1.000000
X_148_7                       1.000000
X_149_4                       1.000000
X_150_10                      1.000000
X_151_8                       1.000000
X_152_8                       1.000000
X_153_3                       1.000000
X_154_3                       1.000000
X_155_8                       1.000000
X_156_8                       1.000000
X_157_8                       1.000000
X_158_3                       1.000000
X_159_8                       1.000000
X_160_4                       1.000000
X_161_4                       1.000000
X_162_8                       1.000000
X_163_4                       1.000000
X_164_4                       1.000000
X_165_5                       1.000000
X_166_8                       1.000000
X_167_4                       1.000000
X_168_1                       1.000000
X_169_10                      1.000000
X_170_8                       1.000000
X_171_8                       1.000000
X_172_8                       1.000000
X_173_6                       1.000000
X_174_2                       1.000000
X_175_3                       1.000000
X_176_8                       1.000000
X_177_10                      1.000000
X_178_8                       1.000000
X_179_5                       1.000000
X_180_10                      1.000000
X_181_4                       1.000000
X_182_4                       1.000000
X_183_2                       1.000000
X_184_10                      1.000000
X_185_8                       1.000000
X_186_8                       1.000000
X_187_4                       1.000000
X_188_4                       1.000000
X_189_9                       1.000000
X_190_4                       1.000000
X_191_8                       1.000000
X_192_8                       1.000000
X_193_4                       1.000000
X_194_1                       1.000000
X_195_8                       1.000000
X_196_4                       1.000000
X_197_8                       1.000000
X_198_10                      1.000000
X_199_4                       1.000000
X_200_2                       1.000000
X_201_5                       1.000000
X_202_10                      1.000000
X_203_4                       1.000000
X_204_6                       1.000000
X_205_8                       1.000000
X_206_10                      1.000000
X_207_2                       1.000000
X_208_10                      1.000000
X_209_8                       1.000000
X_210_10                      1.000000
X_211_5                       1.000000
X_212_8                       1.000000
X_213_4                       1.000000
X_214_8                       1.000000
X_215_8                       1.000000
X_216_8                       1.000000
X_217_5                       1.000000
X_218_8                       1.000000
X_219_10                      1.000000
X_220_4                       1.000000
X_221_3                       1.000000
X_222_8                       1.000000
X_223_4                       1.000000
X_224_8                       1.000000
X_225_8                       1.000000
X_226_10                      1.000000
X_227_9                       1.000000
X_228_1                       1.000000
X_229_4                       1.000000
X_230_8                       1.000000
X_231_8                       1.000000
X_232_8                       1.000000
X_233_4                       1.000000
X_234_8                       1.000000
X_235_8                       1.000000
X_236_8                       1.000000
X_237_8                       1.000000
X_238_4                       1.000000
X_239_4                       1.000000
X_240_8                       1.000000
X_241_10                      1.000000
X_242_3                       1.000000
X_243_6                       1.000000
X_244_8                       1.000000
X_245_4                       1.000000
X_246_8                       1.000000
X_247_4                       1.000000
X_248_10                      1.000000
X_249_6                       1.000000
X_250_8                       1.000000
X_251_10                      1.000000
X_252_4                       1.000000
X_253_4                       1.000000
X_254_10                      1.000000
X_255_5                       1.000000
X_256_10                      1.000000
X_257_10                      1.000000
X_258_8                       1.000000
X_259_10                      1.000000
X_260_3                       1.000000
X_261_7                       1.000000
X_262_10                      1.000000
X_263_8                       1.000000
X_264_3                       1.000000
X_265_8                       1.000000
X_266_10                      1.000000
X_267_8                       1.000000
X_268_4                       1.000000
X_269_8                       1.000000
X_270_7                       1.000000
X_271_8                       1.000000
X_272_10                      1.000000
X_273_8                       1.000000
X_274_8                       1.000000
X_275_2                       1.000000
X_276_8                       1.000000
X_277_8                       1.000000
X_278_10                      1.000000
X_279_4                       1.000000
X_280_4                       1.000000
X_281_8                       1.000000
X_282_4                       1.000000
X_283_8                       1.000000
X_284_8                       1.000000
X_285_10                      1.000000
X_286_10                      1.000000
X_287_9                       1.000000
X_288_10                      1.000000
X_289_5                       1.000000
X_290_4                       1.000000
X_291_8                       1.000000
X_292_2                       1.000000
X_293_10                      1.000000
X_294_4                       1.000000
X_295_8                       1.000000
X_296_10                      1.000000
X_297_10                      1.000000
X_298_4                       1.000000
X_299_9                       1.000000
X_300_4                       1.000000
X_301_8                       1.000000
X_302_8                       1.000000
X_303_8                       1.000000
X_304_4                       1.000000
X_305_4                       1.000000
X_306_4                       1.000000
X_307_2                       1.000000
X_308_10                      1.000000
X_309_4                       1.000000
X_310_8                       1.000000
X_311_10                      1.000000
X_312_8                       1.000000
X_313_5                       1.000000
X_314_5                       1.000000
X_315_3                       1.000000
X_316_10                      1.000000
X_317_4                       1.000000
X_318_9                       1.000000
X_319_4                       1.000000
X_320_1                       1.000000
X_321_4                       1.000000
X_322_10                      1.000000
X_323_10                      1.000000
X_324_3                       1.000000
X_325_9                       1.000000
X_326_10                      1.000000
X_327_8                       1.000000
X_328_2                       1.000000
X_329_2                       1.000000
X_330_8                       1.000000
X_331_8                       1.000000
X_332_4                       1.000000
X_333_9                       1.000000
X_334_6                       1.000000
X_335_8                       1.000000
X_336_4                       1.000000
X_337_10                      1.000000
X_338_4                       1.000000
X_339_2                       1.000000
X_340_8                       1.000000
X_341_7                       1.000000
X_342_10                      1.000000
X_343_8                       1.000000
X_344_6                       1.000000
X_345_10                      1.000000
X_346_3                       1.000000
X_347_1                       1.000000
X_348_8                       1.000000
X_349_4                       1.000000
X_350_4                       1.000000
X_351_8                       1.000000
X_352_8                       1.000000
X_353_8                       1.000000
X_354_6                       1.000000
X_355_8                       1.000000
X_356_10                      1.000000
X_357_8                       1.000000
X_358_4                       1.000000
X_359_6                       1.000000
X_360_8                       1.000000
X_361_7                       1.000000
X_362_1                       1.000000
X_363_8                       1.000000
X_364_10                      1.000000
X_365_8                       1.000000
X_366_9                       1.000000
X_367_10                      1.000000
X_368_10                      1.000000
X_369_10                      1.000000
X_370_10                      1.000000
X_371_10                      1.000000
X_372_10                      1.000000
X_373_10                      1.000000
X_374_4                       1.000000
X_375_7                       1.000000
X_376_4                       1.000000
X_377_4                       1.000000
X_378_4                       1.000000
X_379_3                       1.000000
X_380_1                       1.000000
X_381_2                       1.000000
X_382_4                       1.000000
X_383_5                       1.000000
X_384_2                       1.000000
X_385_8                       1.000000
X_386_10                      1.000000
X_387_8                       1.000000
X_388_8                       1.000000
X_389_10                      1.000000
X_390_8                       1.000000
X_391_10                      1.000000
X_392_8                       1.000000
X_393_4                       1.000000
X_394_2                       1.000000
X_395_3                       1.000000
X_396_10                      1.000000
X_397_6                       1.000000
X_398_10                      1.000000
X_399_10                      1.000000
X_400_10                      1.000000
X_401_4                       1.000000
X_402_4                       1.000000
X_403_10                      1.000000
X_404_10                      1.000000
X_405_10                      1.000000
X_406_10                      1.000000
X_407_4                       1.000000
X_408_10                      1.000000
X_409_10                      1.000000
X_410_8                       1.000000
X_411_4                       1.000000
X_412_4                       1.000000
X_413_10                      1.000000
X_414_8                       1.000000
X_415_9                       1.000000
X_416_10                      1.000000
X_417_8                       1.000000
X_418_8                       1.000000
X_419_2                       1.000000
X_420_8                       1.000000
X_421_8                       1.000000
X_422_2                       1.000000
X_423_4                       1.000000
X_424_4                       1.000000
X_425_4                       1.000000
X_426_4                       1.000000
X_427_10                      1.000000
X_428_4                       1.000000
X_429_8                       1.000000
X_430_10                      1.000000
X_431_8                       1.000000
X_432_8                       1.000000
X_433_6                       1.000000
X_434_10                      1.000000
X_435_7                       1.000000
X_436_8                       1.000000
X_437_8                       1.000000
X_438_8                       1.000000
X_439_7                       1.000000
X_440_1                       1.000000
X_441_4                       1.000000
X_442_8                       1.000000
X_443_8                       1.000000
X_444_1                       1.000000
X_445_10                      1.000000
X_446_8                       1.000000
X_447_8                       1.000000
X_448_10                      1.000000
X_449_8                       1.000000
X_450_10                      1.000000
X_451_10                      1.000000
X_452_2                       1.000000
X_453_4                       1.000000
X_454_8                       1.000000
X_455_9                       1.000000
X_456_2                       1.000000
X_457_10                      1.000000
X_458_10                      1.000000
X_459_4                       1.000000
X_460_10                      1.000000
X_461_8                       1.000000
X_462_8                       1.000000
X_463_8                       1.000000
X_464_4                       1.000000
X_465_8                       1.000000
X_466_8                       1.000000
X_467_2                       1.000000
X_468_10                      1.000000
X_469_4                       1.000000
X_470_8                       1.000000
X_471_8                       1.000000
X_472_7                       1.000000
X_473_8                       1.000000
X_474_6                       1.000000
X_475_8                       1.000000
X_476_9                       1.000000
X_477_10                      1.000000
X_478_10                      1.000000
X_479_8                       1.000000
X_480_8                       1.000000
X_481_1                       1.000000
X_482_5                       1.000000
X_483_5                       1.000000
X_484_10                      1.000000
X_485_8                       1.000000
X_486_8                       1.000000
X_487_10                      1.000000
X_488_8                       1.000000
X_489_10                      1.000000
X_490_10                      1.000000
X_491_10                      1.000000
X_492_5                       1.000000
X_493_9                       1.000000
X_494_9                       1.000000
X_495_6                       1.000000
X_496_9                       1.000000
X_497_4                       1.000000
X_498_4                       1.000000
X_499_5                       1.000000
X_500_4                       1.000000
All other variables in the range 1-5001 are 0.
